<instance format="XCSP3" type="CSP">
  <variables>
    <var id="x0"> 2 11 14 </var>
    <var id="x1"> 2 6 12 14 </var>
    <var id="x2"> 7 11 14 </var>
    <var id="x3"> 2 4 6 11 12 14 </var>
    <var id="x4"> 4 11 12 </var>
    <var id="x5"> 4 7 12 </var>
    <var id="x6"> 6 7 11 12 </var>
    <var id="x7"> 2 6 10 14 </var>
    <var id="x8"> 2 8 9 14 </var>
    <var id="x9"> 2 9 10 12 </var>
    <var id="x10"> 2 6 10 12 14 </var>
    <var id="x11"> 14 </var>
    <var id="x12"> 2 8 12 14 </var>
    <var id="x13"> 2 6 8 10 12 14 </var>
    <var id="x14"> 2 4 10 14 </var>
    <var id="x15"> 0 2 3 9 14 </var>
    <var id="x16"> 0 2 4 10 14 </var>
    <var id="x17"> 0 2 3 </var>
    <var id="x18"> 2 4 14 </var>
    <var id="x19"> 0 4 9 </var>
    <var id="x20"> 0 9 </var>
    <var id="x21"> 4 5 14 </var>
    <var id="x22"> 4 5 14 </var>
    <var id="x23"> 3 11 </var>
    <var id="x24"> 1 14 </var>
    <var id="x25"> 1 3 5 7 11 14 </var>
    <var id="x26"> 4 5 14 </var>
    <var id="x27"> 3..5 7 </var>
    <var id="x28"> 8 9 14 </var>
    <var id="x29"> 1 3 14 </var>
    <var id="x30"> 0 1 3 </var>
    <var id="x31"> 8 12 14 </var>
    <var id="x32"> 0 8 9 </var>
    <var id="x33"> 0 1 8 9 12 </var>
    <var id="x34"> 8 12 14 </var>
    <var id="x35"> 2 5 6 13 </var>
    <var id="x36"> 2 5 8 11 </var>
    <var id="x37"> 5 6 8 </var>
    <var id="x38"> 2 5 6 </var>
    <var id="x39"> 2 6 11 </var>
    <var id="x40"> 2 7 8 13 </var>
    <var id="x41"> 5 7 8 11 </var>
    <var id="x42"> 4..6 13 14 </var>
    <var id="x43"> 11 13 </var>
    <var id="x44"> 6 14 </var>
    <var id="x45"> 4..6 14 </var>
    <var id="x46"> 6 11 </var>
    <var id="x47"> 4 5 8 11 </var>
    <var id="x48"> 4 5 13 </var>
    <var id="x49"> 5 6 13 </var>
    <var id="x50"> 0 3 5 8 </var>
    <var id="x51"> 5 6 8 </var>
    <var id="x52"> 3 13 </var>
    <var id="x53"> 0 1 6 </var>
    <var id="x54"> 1 3 5 13 </var>
    <var id="x55"> 8 13 </var>
    <var id="x56"> 2 4 6 14 </var>
    <var id="x57"> 0 2 4 6 14 </var>
    <var as="x3" id="x58"/>
    <var id="x59"> 0 2 6 11 </var>
    <var id="x60"> 0 4 9 11 </var>
    <var id="x61"> 0 4 9 11 12 </var>
    <var id="x62"> 4 9 12 </var>
    <var id="x63"> 0 6 9 11 12 </var>
    <var id="x64"> 5 8 14 </var>
    <var id="x65"> 2 11 12 </var>
    <var id="x66"> 2 11 12 14 </var>
    <var id="x67"> 0 5 8 11 </var>
    <var id="x68"> 0 8 11 12 </var>
    <var id="x69"> 5 12 </var>
    <var id="x70"> 0 5 11 12 </var>
    <var id="x71"> 0 2 3 5 </var>
    <var id="x72"> 2 3 12 </var>
    <var id="x73"> 0 2 4 5 </var>
    <var id="x74"> 0 2 3 7 </var>
    <var id="x75"> 2 4 7 12 </var>
    <var id="x76"> 2 4 12 </var>
    <var id="x77"> 0 5 7 12 </var>
    <var id="x78"> 2 5 9 </var>
    <var id="x79"> 1 2 10 </var>
    <var id="x80"> 1 5 7 </var>
    <var id="x81"> 2 4 </var>
    <var id="x82"> 1 4 9 </var>
    <var id="x83"> 2 4 10 </var>
    <var id="x84"> 5 7 9 </var>
    <var id="x85"> 9..13 </var>
    <var id="x86"> 0 6 10 12 </var>
    <var id="x87"> 11 13 </var>
    <var id="x88"> 6 11 12 </var>
    <var id="x89"> 0 6 11 </var>
    <var id="x90"> 6 10 12 </var>
    <var id="x91"> 9 12 13 </var>
    <var id="x92"> 2 9 11 </var>
    <var id="x93"> 4 9 10 </var>
    <var id="x94"> 2 4 10 </var>
    <var id="x95"> 2 4 7 13 </var>
    <var id="x96"> 4 9 11 </var>
    <var id="x97"> 2 4 10 </var>
    <var id="x98"> 4 7 9 13 </var>
    <var id="x99"> 4..6 10 14 </var>
    <var id="x100"> 3 4 6 12 14 </var>
    <var id="x101"> 3 6 </var>
    <var id="x102"> 4 5 </var>
    <var id="x103"> 4 12 </var>
    <var id="x104"> 4 6 10 12 14 </var>
    <var id="x105"> 5 6 12 </var>
  </variables>
  <constraints>
    <group>
      <allDifferent> %... </allDifferent>
      <args> x0 x1 x2 x3 x4 x5 x6 </args>
      <args> x7 x8 x9 x10 x11 x12 x13 </args>
      <args> x14 x15 x16 x17 x18 x19 x20 </args>
      <args> x21 x22 x23 x24 x25 x26 x27 </args>
      <args> x28 x29 x30 x31 x32 x33 x34 </args>
      <args> x35 x36 x37 x38 x39 x40 x41 </args>
      <args> x42 x43 x44 x45 x46 x47 x48 </args>
      <args> x49 x50 x51 x52 x53 x54 x55 </args>
      <args> x56 x57 x58 x59 x60 x61 x62 x63 </args>
      <args> x64 x65 x66 x67 x68 x69 x70 </args>
      <args> x71 x72 x73 x74 x75 x76 x77 </args>
      <args> x78 x79 x80 x81 x82 x83 x84 </args>
      <args> x85 x86 x87 x88 x89 x90 x91 </args>
      <args> x92 x93 x94 x95 x96 x97 x98 </args>
      <args> x99 x100 x101 x102 x103 x104 x105 </args>
      <args> x7 x14 x21 x35 x42 x49 x56 </args>
      <args> x0 x8 x15 x36 x50 x71 x78 x92 </args>
      <args> x22 x28 x37 x51 x64 x93 x99 </args>
      <args> x9 x23 x43 x52 x65 x72 x85 </args>
      <args> x1 x10 x24 x44 x53 x79 x86 </args>
      <args> x2 x11 x25 x29 x54 x80 x87 </args>
      <args> x16 x26 x38 x45 x57 x73 x94 </args>
      <args> x3 x39 x58 x66 x81 x88 x100 </args>
      <args> x17 x30 x46 x59 x74 x89 x101 </args>
      <args> x12 x18 x31 x40 x55 x75 x95 </args>
      <args> x19 x32 x41 x47 x60 x67 x102 </args>
      <args> x4 x33 x61 x68 x82 x96 x103 </args>
      <args> x13 x34 x76 x83 x90 x97 x104 </args>
      <args> x5 x27 x48 x62 x69 x91 x98 </args>
      <args> x6 x20 x63 x70 x77 x84 x105 </args>
    </group>
  </constraints>
</instance>

